&control
    calculation = 'vc-relax',
    restart_mode='from_scratch',
    prefix='mon2-mono-3-mv001-s1-dm',
    pseudo_dir = '../graphite',
    outdir='/mnt/scratch/',
    verbosity='high'
 /
 &system
    ibrav=  4,
    A = 2.0,
    C = 7.5
    nat=  3,
    ntyp= 3,
    ecutwfc =70, ecutrho=560,

    occupations='smearing',
    smearing='mv',
    degauss=0.01

 /
 &electrons
    mixing_beta = 0.7,
    conv_thr =  1.0d-10,
 /
 &ions
 /
 &cell
cell_dofree='2Dxy'
 /
ATOMIC_SPECIES

ATOMIC_POSITIONS crystal
C 0.0000000 0.0000000 0.000000
C 0.3333333 0.6666666 0.000000
K_POINTS {automatic}
10 10 3 1 1 1

