&control
   calculation = "scf",
   restart_mode = "from_scratch",
   prefix = '_31c00f81bae58cfe_01',
   pseudo_dir = './',
   outdir = './',
   wfcdir = './',
/
&system
   ibrav = 0,
   nat = 1,
   ntyp = 1,
   nspin = 2,
   starting_magnetization = 0.0,
   occupations = 'smearing',
   smearing = 'marzari-vanderbilt',
   degauss = 0.02,
   ecutwfc = 60.0,
   ecutrho = 600.0,
   celldm(1) = 5.286869667121916,
/
&electrons
   mixing_beta = 0.7,
   conv_thr = 1.0d-8,
/
&ions
/
&cell
/
ATOMIC_SPECIES 

ATOMIC_POSITIONS {crystal}
Pt 0.000000000 0.000000000 0.000000000 1 1 1
CELL_PARAMETERS {alat}
   -0.7071071317    -0.0000000000     0.7071071317
    0.0000000000     0.7071071317     0.7071071317
   -0.7071071317     0.7071071317     0.0000000000
K_POINTS {automatic}
6 6 6 0 0 0
