CUB perovskite template for MTF
Reference file for VCR
 &control
    calculation = 'vc-relax',
    restart_mode='from_scratch',

    PSEUDO_DIR ='./',
    outdir ='./',
    verbosity='high'
    etot_conv_thr=1.0D-4
    forc_conv_thr=1.0D-3
    nstep=200
 /
 &system
    A  =5.735
    ibrav=2,  
    nat=2,
    ntyp=2, 
    ecutwfc = 100.,

 /
 &electrons
    diagonalization = 'david',
    mixing_mode = 'plain',
    mixing_beta = 0.7,
    conv_thr =  1.0d-10,
    electron_maxstep=200
 /
 &ions
 /
 &cell
 cell_factor=2.0
 /
ATOMIC_SPECIES

As

Ga


ATOMIC_POSITIONS {crystal}
Ga      0.00000000000000   0.00000000000000   0.00000000000000  
As     -0.25000000000000  -0.25000000000000  -0.25000000000000
K_POINTS {automatic}
4 4 4 1 1 1
