 &control
    calculation = 'scf'
    restart_mode='from_scratch',
    prefix='silicon1',
    pseudo_dir = './'
    outdir = './'
 /
 &system    
    ibrav=  0, celldm(1) =10.599478, nat=  2, ntyp= 1,
    ecutwfc =40.0
 /
 &electrons
    mixing_mode = 'plain'
    mixing_beta = 0.7 
    conv_thr =  1.0d-8
 /
ATOMIC_SPECIES
 Si  28.086 Si.pw-mt_fhi_spd.UPF
ATOMIC_POSITIONS (alat)
 Si 0.00 0.00 0.00 
 Si 0.75 0.75 0.75 
K_POINTS {automatic}
10 10 10 1 1 1
CELL_PARAMETERS {alat}
    0.0000000000     0.5000000000     0.5000000000
    0.5000000000     0.0000000000     0.5000000000
    0.5000000000     0.5000000000     0.0000000000
