TET perovskite template for AFLOWPIrame
!
 &control
    calculation = 'relax',
    prefix = '_AFLOWPI_PREFIX_',
    restart_mode='from_scratch', 
    PSEUDO_DIR ='./',
    outdir ='./',
    verbosity='high'
    nstep=200
 /
 &system
    ibrav=6, celldm(1) =  8.0, 
    celldm(3) = 1.05
    nat=5,
    ntyp=3, 
    ecutwfc = 60.,
    ecutrho = 480.,



 /
 &electrons
    mixing_mode = 'plain',
    mixing_beta = 0.7,
    conv_thr =  1.0d-10,
    electron_maxstep=200
 /
 &ions
   ion_dynamics = 'bfgs'
 /
 &cell
 cell_factor=2.0
 /
ATOMIC_SPECIES

ATOMIC_POSITIONS 
Ba 0.0 0.0 0.0
Ti 0.5 0.5 0.51 
O 0.5 0.5 0.0 
O 0.0 0.5 0.5 
O 0.5 0.0 0.5 
K_POINTS automatic
6 6 6 1 1 1
