&control
   pseudo_dir = './',
   outdir = './',
   wfcdir = './',
   restart_mode = "from_scratch",
   prefix = '_da3e92a3516370ad_01',
   calculation = "vc-relax",
/
&system
   ibrav = 0,
   nat = 24,
   ntyp = 5,
   ecutwfc = 40.0,
   ecutrho = 400.0,
   nspin=2
   occupations = "smearing",
   smearing = "cold",
   degauss = 0.005,
   starting_magnetization(1) = -0.5,
   starting_magnetization(2) = 0.5,
   celldm(1) = 16.1839237146

/
&electrons
   conv_thr = 1.e-10,
/
&ions
/
&cell
/
ATOMIC_POSITIONS {crystal}
 Fe1 0.625000000000000000 0.125000000000000000 0.625000000000000000 1 1 1
 Fe1 0.375000000000000000 0.875000000000000000 0.375000000000000000 1 1 1
 Fe2 0.000000000000000000 0.000000000000000000 0.000000000000000000 1 1 1
 Fe2 0.000000000000000000 0.500000000000000000 0.000000000000000000 1 1 1
 Fe2 0.000000000000000000 0.500000000000000000 0.500000000000000000 1 1 1
 Fe2 0.500000000000000000 0.500000000000000000 0.000000000000000000 1 1 1
   O 0.755680000000000018 0.732959999999999945 0.755680000000000018 1 1 1
   O 0.755680000000000018 0.255680000000000018 0.755680000000000018 1 1 1
   O 0.755680000000000018 0.255680000000000018 0.232960000000000000 1 1 1
   O 0.232960000000000000 0.255680000000000018 0.755680000000000018 1 1 1
   O 0.244320000000000009 0.267040000000000000 0.244320000000000009 1 1 1
   O 0.244320000000000009 0.744319999999999982 0.244320000000000009 1 1 1
   O 0.244320000000000009 0.744319999999999982 0.767040000000000055 1 1 1
   O 0.767040000000000055 0.744319999999999982 0.244320000000000009 1 1 1
CELL_PARAMETERS {alat}
   -0.5000000000     0.0000000000     0.5000000000
    0.0000000000     0.5000000000     0.5000000000
   -0.5000000000     0.5000000000     0.0000000000

K_POINTS{automatic}
8 8 8 1 1 1